coords = array2d(1..69, 1..2, [233, 128, 224, 834, 409, 510, 48, 456, 651, 667,
    477, 32, 909, 594, 162, 674, 602, 953, 60, 826, 549, 446, 2, 507,
    865, 498, 126, 978, 848, 273, 897, 591, 741, 577, 752, 117, 23,
    615, 677, 78, 440, 854, 91, 72, 780, 933, 762, 26, 160, 930, 50,
    286, 912, 460, 585, 612, 410, 14, 5, 171, 576, 888, 101, 697, 24,
    488, 960, 524, 318, 674, 827, 748, 772, 362, 87, 558, 324, 227,
    321, 276, 306, 648, 408, 180, 470, 924, 835, 378, 209, 909, 389,
    595, 33, 247, 826, 609, 17, 433, 176, 473, 27, 836, 119, 814, 256,
    799, 363, 417, 385, 154, 705, 895, 395, 799, 554, 215, 941, 468,
    707, 523, 425, 311, 368, 940, 947, 177, 971, 871, 307, 253, 151,
    366, 742, 546, 369, 181, 499, 931]);

n = 69;

